PROBLEM NAME: eil51_n9
KNAPSACK DATA TYPE: multiple strongly correlated
DIMENSION: 9
NUMBER OF ITEMS: 40
CAPACITY OF KNAPSACK: 11545
MIN SPEED: 0.1
MAX SPEED: 1
RENTING RATIO: 18.15
EDGE_WEIGHT_TYPE: CEIL_2D
NODE_COORD_SECTION	(INDEX, X, Y):
1	17	63
2	31	62
3	36	16
4	52	41
5	27	23
6	62	63
7	32	22
8	5	6
9	56	37
ITEMS SECTION	(INDEX, PROFIT, WEIGHT, ASSIGNED NODE NUMBER):
1	1179	979	2
2	1128	928	2
3	1092	792	2
4	1086	786	2
5	1061	861	2
6	1048	848	6
7	1014	714	6
8	1014	814	6
9	1013	813	6
10	990	790	6
11	989	789	4
12	973	773	4
13	953	753	4
14	952	752	4
15	910	710	4
16	882	682	9
17	852	652	9
18	847	647	9
19	805	605	9
20	775	575	9
21	759	559	3
22	688	488	3
23	677	477	3
24	593	393	3
25	586	386	3
26	574	374	7
27	573	373	7
28	564	364	7
29	564	264	7
30	555	355	7
31	553	353	5
32	534	234	5
33	445	245	5
34	442	242	5
35	429	229	5
36	425	225	8
37	312	112	8
38	311	111	8
39	270	70	8
40	250	50	8
